; benchmark generated from python API
(set-info :status unknown)
(declare-fun x_month () Int)
(declare-fun x_year () Int)
(declare-fun x_day () Int)
(declare-fun y_month () Int)
(declare-fun y_year () Int)
(declare-fun y_day () Int)
(assert
 (let (($x601 (or (= x_month 4) (= x_month 6) (= x_month 9) (= x_month 11))))
 (let ((?x711 (ite $x601 30 31)))
 (let (($x403 (= (mod x_year 400) 0)))
 (let (($x552 (= (mod x_year 4) 0)))
 (let ((?x546 (ite (or (and $x552 (and (distinct (mod x_year 100) 0) true)) $x403) 29 28)))
 (let (($x465 (= x_month 2)))
 (let (($x653 (<= x_day (ite $x465 ?x546 ?x711))))
 (let (($x560 (>= x_day 1)))
 (let (($x750 (<= x_month 2)))
 (let (($x583 (>= x_month 1)))
 (let (($x623 (= x_year 2100)))
 (let (($x559 (<= x_month 12)))
 (let (($x608 (<= x_year 2099)))
 (let (($x701 (>= x_year 1901)))
 (or (and (= x_year 1900) (>= x_month 3) $x559 $x560 $x653) (and $x701 $x608 $x583 $x559 $x560 $x653) (and $x623 $x583 $x750 $x560 $x653)))))))))))))))))
(assert
 (let (($x751 (or (= y_month 4) (= y_month 6) (= y_month 9) (= y_month 11))))
 (let ((?x728 (ite $x751 30 31)))
 (let (($x729 (= (mod y_year 400) 0)))
 (let (($x513 (= (mod y_year 4) 0)))
 (let ((?x753 (ite (or (and $x513 (and (distinct (mod y_year 100) 0) true)) $x729) 29 28)))
 (let (($x789 (= y_month 2)))
 (let (($x731 (<= y_day (ite $x789 ?x753 ?x728))))
 (let (($x522 (>= y_day 1)))
 (let (($x775 (<= y_month 2)))
 (let (($x520 (>= y_month 1)))
 (let (($x780 (= y_year 2100)))
 (let (($x793 (<= y_month 12)))
 (let (($x735 (<= y_year 2099)))
 (let (($x757 (>= y_year 1901)))
 (or (and (= y_year 1900) (>= y_month 3) $x793 $x522 $x731) (and $x757 $x735 $x520 $x793 $x522 $x731) (and $x780 $x520 $x775 $x522 $x731)))))))))))))))))
(assert
 (let (($x687 (= x_day 15)))
 (let (($x634 (= x_month 1)))
 (let (($x688 (= x_year 2022)))
 (and $x688 $x634 $x687)))))
(assert
 (let ((?x737 (+ (mod (- (+ x_month (+ (* 0 12) 13)) 1) 12) 1)))
 (let ((?x804 (ite (or (= ?x737 4) (= ?x737 6) (= ?x737 9) (= ?x737 11)) 30 31)))
 (let ((?x740 (+ 0 (div (- (+ x_month (+ (* 0 12) 13)) 1) 12))))
 (let ((?x741 (+ x_year ?x740)))
 (let (($x815 (or (and (= (mod ?x741 4) 0) (and (distinct (mod ?x741 100) 0) true)) (= (mod ?x741 400) 0))))
 (let ((?x856 (ite (= ?x737 2) (ite $x815 29 28) ?x804)))
 (let ((?x852 (ite (< x_day 1) 1 (ite (> x_day ?x856) ?x856 x_day))))
 (let ((?x833 (ite (< ?x852 1) 1 (ite (> ?x852 ?x856) ?x856 ?x852))))
 (let ((?x843 (ite (= 2 ?x737) (ite $x815 31 31) (ite (= 1 ?x737) (ite $x815 0 0) 0))))
 (let ((?x885 (ite (= 4 ?x737) (ite $x815 91 90) (ite (= 3 ?x737) (ite $x815 60 59) ?x843))))
 (let ((?x515 (ite (= 6 ?x737) (ite $x815 152 151) (ite (= 5 ?x737) (ite $x815 121 120) ?x885))))
 (let ((?x658 (ite (= 8 ?x737) (ite $x815 213 212) (ite (= 7 ?x737) (ite $x815 182 181) ?x515))))
 (let ((?x872 (ite (= 10 ?x737) (ite $x815 274 273) (ite (= 9 ?x737) (ite $x815 244 243) ?x658))))
 (let ((?x637 (ite (= 12 ?x737) (ite $x815 335 334) (ite (= 11 ?x737) (ite $x815 305 304) ?x872))))
 (let ((?x697 (- (+ (* 365 (- ?x741 1)) (div (- ?x741 1) 4)) (div (- ?x741 1) 100))))
 (let ((?x718 (- (+ (+ (+ ?x697 (div (- ?x741 1) 400)) ?x637) (- ?x833 1)) 730179)))
 (let ((?x708 (+ (+ ?x718 40) 730179)))
 (let ((?x866 (mod ?x708 146097)))
 (let ((?x867 (div ?x866 36524)))
 (let ((?x864 (ite (<= 4 ?x867) 3 ?x867)))
 (let ((?x865 (- ?x866 (* ?x864 36524))))
 (let ((?x871 (mod ?x865 1461)))
 (let ((?x874 (div ?x871 365)))
 (let ((?x903 (ite (<= 4 ?x874) 3 ?x874)))
 (let ((?x889 (+ (+ (* (div ?x708 146097) 400) (* ?x864 100)) (* (div ?x865 1461) 4))))
 (let ((?x895 (+ (+ ?x889 ?x903) 1)))
 (let (($x816 (or (and (= (mod ?x895 4) 0) (and (distinct (mod ?x895 100) 0) true)) (= (mod ?x895 400) 0))))
 (let ((?x880 (- ?x871 (* ?x903 365))))
 (let ((?x806 (ite $x816 31 31)))
 (let (($x606 (>= ?x880 ?x806)))
 (let ((?x715 (ite $x606 (+ (- ?x880 ?x806) 1) (+ (- ?x880 (ite $x816 0 0)) 1))))
 (let ((?x807 (ite $x816 60 59)))
 (let (($x449 (>= ?x880 ?x807)))
 (let ((?x808 (ite $x816 91 90)))
 (let (($x899 (>= ?x880 ?x808)))
 (let ((?x478 (ite $x899 (+ (- ?x880 ?x808) 1) (ite $x449 (+ (- ?x880 ?x807) 1) ?x715))))
 (let ((?x818 (ite $x816 121 120)))
 (let (($x821 (>= ?x880 ?x818)))
 (let ((?x819 (ite $x816 152 151)))
 (let (($x820 (>= ?x880 ?x819)))
 (let ((?x406 (ite $x820 (+ (- ?x880 ?x819) 1) (ite $x821 (+ (- ?x880 ?x818) 1) ?x478))))
 (let ((?x668 (ite $x816 182 181)))
 (let (($x812 (>= ?x880 ?x668)))
 (let ((?x607 (ite $x816 213 212)))
 (let (($x811 (>= ?x880 ?x607)))
 (let ((?x510 (ite $x811 (+ (- ?x880 ?x607) 1) (ite $x812 (+ (- ?x880 ?x668) 1) ?x406))))
 (let ((?x586 (ite $x816 244 243)))
 (let (($x810 (>= ?x880 ?x586)))
 (let ((?x629 (ite $x816 274 273)))
 (let (($x670 (>= ?x880 ?x629)))
 (let ((?x507 (ite $x670 (+ (- ?x880 ?x629) 1) (ite $x810 (+ (- ?x880 ?x586) 1) ?x510))))
 (let ((?x609 (ite $x816 305 304)))
 (let (($x594 (>= ?x880 ?x609)))
 (let ((?x630 (ite $x816 335 334)))
 (let (($x666 (>= ?x880 ?x630)))
 (let ((?x494 (ite $x666 (+ (- ?x880 ?x630) 1) (ite $x594 (+ (- ?x880 ?x609) 1) ?x507))))
 (let (($x832 (= 0 40)))
 (let ((?x593 (ite $x821 5 (ite $x899 4 (ite $x449 3 (ite $x606 2 1))))))
 (let ((?x669 (ite $x810 9 (ite $x811 8 (ite $x812 7 (ite $x820 6 ?x593))))))
 (let ((?x664 (ite $x666 12 (ite $x594 11 (ite $x670 10 ?x669)))))
 (and (= y_year (ite $x832 ?x741 ?x895)) (= y_month (ite $x832 ?x737 ?x664)) (= y_day (ite $x832 ?x833 ?x494))))))))))))))))))))))))))))))))))))))))))))))))))))))))))))))))
(assert
 (not (and (= y_year 2023) (= y_month 2) (= y_day 24))))
(check-sat)
